NAME: PointSet_Angle_20_4
TYPE: TSP
COMMENT: Points chosen discrete uniformly at random out of ${0, \ldots, 500}^2$.
DIMENSION: 20
EDGE_WEIGHT_TYPE: EUC_2D
NODE_COORD_SECTION
1 408 372
2 468 276
3 364 80
4 80 2
5 161 242
6 137 428
7 237 472
8 326 229
9 188 196
10 446 367
11 81 219
12 417 320
13 227 48
14 312 175
15 217 299
16 406 124
17 417 119
18 146 26
19 446 226
20 28 106
EOF
